Traveling Salesman Problem/TSP_generados/Aleatorio1621103320_9.tsp
NAME: Aleatorio1621103320_9.tsp
COMMENT: Randomly generated scenario
TYPE: TSP
DIMENSION: 9
EDGE_WEIGHT_TYPE: ATT
NODE_COORD_SECTION
1 26.29 11.74
2 33.23 47.93
3 48.92 43.2
4 16.64 27.26
5 41.28 15.46
6 42.77 43.47
7 10.87 1.53
8 37.48 0.49
9 32.22 17.25
