Traveling Salesman Problem/TSP_generados/Aleatorio1621103320_9.opt.tour
NAME: Aleatorio1621103320_9.opt.tour
COMMENT: Optimal solution for Aleatorio1621103320_9 (157.93249282432086)
TYPE: TOUR
DIMENSION: 9
TOUR_SECTION
1 7 4 2 6 3 5 8 9
-1
EOF
